Maximize
  9 x0_0_ + 9 x0_1_ + 9 x0_2_ + 9 x0_3_ + 9 x0_4_ + 2 x0_5_ + 2 x0_6_
   + 9 x0_7_ + 9 x0_8_ + 9 x0_9_ + 144 x1_5_ + 144 x1_6_ + 85 x2_5_
   + 85 x2_6_ + 432 x3_5_ + 432 x3_6_ + 27 x4_0_ + 27 x4_1_ + 27 x4_2_
   + 27 x4_3_ + 27 x4_4_ + 6 x4_5_ + 6 x4_6_ + 27 x4_7_ + 27 x4_8_
   + 27 x4_9_ + 360 x5_5_ + 360 x5_6_ + 36 x6_0_ + 36 x6_1_ + 36 x6_2_
   + 36 x6_3_ + 36 x6_4_ + 8 x6_5_ + 8 x6_6_ + 36 x6_7_ + 36 x6_8_
   + 36 x6_9_ + 36 x7_0_ + 36 x7_1_ + 36 x7_2_ + 36 x7_3_ + 36 x7_4_
   + 8 x7_5_ + 8 x7_6_ + 36 x7_7_ + 36 x7_8_ + 36 x7_9_ + 27 x8_0_
   + 27 x8_1_ + 27 x8_2_ + 27 x8_3_ + 27 x8_4_ + 6 x8_5_ + 6 x8_6_
   + 27 x8_7_ + 27 x8_8_ + 27 x8_9_ + 9 x9_0_ + 9 x9_1_ + 9 x9_2_ + 9 x9_3_
   + 9 x9_4_ + 2 x9_5_ + 2 x9_6_ + 9 x9_7_ + 9 x9_8_ + 9 x9_9_ + 34 x10_5_
   + 34 x10_6_ + 45 x11_0_ + 45 x11_1_ + 45 x11_2_ + 45 x11_3_ + 45 x11_4_
   + 10 x11_5_ + 10 x11_6_ + 45 x11_7_ + 45 x11_8_ + 45 x11_9_ + 18 x12_0_
   + 18 x12_1_ + 18 x12_2_ + 18 x12_3_ + 18 x12_4_ + 4 x12_5_ + 4 x12_6_
   + 18 x12_7_ + 18 x12_8_ + 18 x12_9_ + 54 x13_0_ + 54 x13_1_ + 54 x13_2_
   + 54 x13_3_ + 54 x13_4_ + 12 x13_5_ + 12 x13_6_ + 54 x13_7_ + 54 x13_8_
   + 54 x13_9_ + 36 x14_0_ + 36 x14_1_ + 36 x14_2_ + 36 x14_3_ + 36 x14_4_
   + 8 x14_5_ + 8 x14_6_ + 36 x14_7_ + 36 x14_8_ + 36 x14_9_
Subject To
 R0: x0_0_ + x0_1_ + x0_2_ + x0_3_ + x0_4_ + x0_5_ + x0_6_ + x0_7_ + x0_8_
   + x0_9_ + x0_n_ = 1
 R1: x1_5_ + x1_6_ + x1_n_ = 1
 R2: x2_5_ + x2_6_ + x2_n_ = 1
 R3: x3_5_ + x3_6_ + x3_n_ = 1
 R4: x4_0_ + x4_1_ + x4_2_ + x4_3_ + x4_4_ + x4_5_ + x4_6_ + x4_7_ + x4_8_
   + x4_9_ + x4_n_ = 1
 R5: x5_5_ + x5_6_ + x5_n_ = 1
 R6: x6_0_ + x6_1_ + x6_2_ + x6_3_ + x6_4_ + x6_5_ + x6_6_ + x6_7_ + x6_8_
   + x6_9_ + x6_n_ = 1
 R7: x7_0_ + x7_1_ + x7_2_ + x7_3_ + x7_4_ + x7_5_ + x7_6_ + x7_7_ + x7_8_
   + x7_9_ + x7_n_ = 1
 R8: x8_0_ + x8_1_ + x8_2_ + x8_3_ + x8_4_ + x8_5_ + x8_6_ + x8_7_ + x8_8_
   + x8_9_ + x8_n_ = 1
 R9: x9_0_ + x9_1_ + x9_2_ + x9_3_ + x9_4_ + x9_5_ + x9_6_ + x9_7_ + x9_8_
   + x9_9_ + x9_n_ = 1
 R10: x10_5_ + x10_6_ + x10_n_ = 1
 R11: x11_0_ + x11_1_ + x11_2_ + x11_3_ + x11_4_ + x11_5_ + x11_6_ + x11_7_
   + x11_8_ + x11_9_ + x11_n_ = 1
 R12: x12_0_ + x12_1_ + x12_2_ + x12_3_ + x12_4_ + x12_5_ + x12_6_ + x12_7_
   + x12_8_ + x12_9_ + x12_n_ = 1
 R13: x13_0_ + x13_1_ + x13_2_ + x13_3_ + x13_4_ + x13_5_ + x13_6_ + x13_7_
   + x13_8_ + x13_9_ + x13_n_ = 1
 R14: x14_0_ + x14_1_ + x14_2_ + x14_3_ + x14_4_ + x14_5_ + x14_6_ + x14_7_
   + x14_8_ + x14_9_ + x14_n_ = 1
 R15: x0_0_ + x9_0_ <= 1
 R16: x0_1_ + x9_1_ <= 1
 R17: x0_2_ + x9_2_ <= 1
 R18: x0_3_ + x9_3_ <= 1
 R19: x0_4_ + x9_4_ <= 1
 R20: x0_5_ + x9_5_ <= 1
 R21: x0_6_ + x9_6_ <= 1
 R22: x0_7_ + x9_7_ <= 1
 R23: x0_8_ + x9_8_ <= 1
 R24: x0_9_ + x9_9_ <= 1
 R25: x0_0_ + x13_0_ <= 1
 R26: x0_1_ + x13_1_ <= 1
 R27: x0_2_ + x13_2_ <= 1
 R28: x0_3_ + x13_3_ <= 1
 R29: x0_4_ + x13_4_ <= 1
 R30: x0_5_ + x13_5_ <= 1
 R31: x0_6_ + x13_6_ <= 1
 R32: x0_7_ + x13_7_ <= 1
 R33: x0_8_ + x13_8_ <= 1
 R34: x0_9_ + x13_9_ <= 1
 R35: x0_0_ + x14_0_ <= 1
 R36: x0_1_ + x14_1_ <= 1
 R37: x0_2_ + x14_2_ <= 1
 R38: x0_3_ + x14_3_ <= 1
 R39: x0_4_ + x14_4_ <= 1
 R40: x0_5_ + x14_5_ <= 1
 R41: x0_6_ + x14_6_ <= 1
 R42: x0_7_ + x14_7_ <= 1
 R43: x0_8_ + x14_8_ <= 1
 R44: x0_9_ + x14_9_ <= 1
 R45: x1_5_ + x3_5_ <= 1
 R46: x1_6_ + x3_6_ <= 1
 R47: x1_5_ + x14_5_ <= 1
 R48: x1_6_ + x14_6_ <= 1
 R49: x1_5_ + x2_5_ <= 1
 R50: x1_6_ + x2_6_ <= 1
 R51: x2_5_ + x3_5_ <= 1
 R52: x2_6_ + x3_6_ <= 1
 R53: x2_5_ + x5_5_ <= 1
 R54: x2_6_ + x5_6_ <= 1
 R55: x2_5_ + x13_5_ <= 1
 R56: x2_6_ + x13_6_ <= 1
 R57: x2_5_ + x14_5_ <= 1
 R58: x2_6_ + x14_6_ <= 1
 R59: x0_5_ + x3_5_ <= 1
 R60: x0_6_ + x3_6_ <= 1
 R61: x1_5_ + x3_5_ <= 1
 R62: x1_6_ + x3_6_ <= 1
 R63: x3_5_ + x5_5_ <= 1
 R64: x3_6_ + x5_6_ <= 1
 R65: x3_5_ + x9_5_ <= 1
 R66: x3_6_ + x9_6_ <= 1
 R67: x3_5_ + x13_5_ <= 1
 R68: x3_6_ + x13_6_ <= 1
 R69: x3_5_ + x14_5_ <= 1
 R70: x3_6_ + x14_6_ <= 1
 R71: x4_0_ + x6_0_ <= 1
 R72: x4_1_ + x6_1_ <= 1
 R73: x4_2_ + x6_2_ <= 1
 R74: x4_3_ + x6_3_ <= 1
 R75: x4_4_ + x6_4_ <= 1
 R76: x4_5_ + x6_5_ <= 1
 R77: x4_6_ + x6_6_ <= 1
 R78: x4_7_ + x6_7_ <= 1
 R79: x4_8_ + x6_8_ <= 1
 R80: x4_9_ + x6_9_ <= 1
 R81: x4_0_ + x7_0_ <= 1
 R82: x4_1_ + x7_1_ <= 1
 R83: x4_2_ + x7_2_ <= 1
 R84: x4_3_ + x7_3_ <= 1
 R85: x4_4_ + x7_4_ <= 1
 R86: x4_5_ + x7_5_ <= 1
 R87: x4_6_ + x7_6_ <= 1
 R88: x4_7_ + x7_7_ <= 1
 R89: x4_8_ + x7_8_ <= 1
 R90: x4_9_ + x7_9_ <= 1
 R91: x4_0_ + x11_0_ <= 1
 R92: x4_1_ + x11_1_ <= 1
 R93: x4_2_ + x11_2_ <= 1
 R94: x4_3_ + x11_3_ <= 1
 R95: x4_4_ + x11_4_ <= 1
 R96: x4_5_ + x11_5_ <= 1
 R97: x4_6_ + x11_6_ <= 1
 R98: x4_7_ + x11_7_ <= 1
 R99: x4_8_ + x11_8_ <= 1
 R100: x4_9_ + x11_9_ <= 1
 R101: x4_0_ + x12_0_ <= 1
 R102: x4_1_ + x12_1_ <= 1
 R103: x4_2_ + x12_2_ <= 1
 R104: x4_3_ + x12_3_ <= 1
 R105: x4_4_ + x12_4_ <= 1
 R106: x4_5_ + x12_5_ <= 1
 R107: x4_6_ + x12_6_ <= 1
 R108: x4_7_ + x12_7_ <= 1
 R109: x4_8_ + x12_8_ <= 1
 R110: x4_9_ + x12_9_ <= 1
 R111: x0_5_ + x5_5_ <= 1
 R112: x0_6_ + x5_6_ <= 1
 R113: x3_5_ + x5_5_ <= 1
 R114: x3_6_ + x5_6_ <= 1
 R115: x5_5_ + x8_5_ <= 1
 R116: x5_6_ + x8_6_ <= 1
 R117: x5_5_ + x9_5_ <= 1
 R118: x5_6_ + x9_6_ <= 1
 R119: x5_5_ + x11_5_ <= 1
 R120: x5_6_ + x11_6_ <= 1
 R121: x5_5_ + x13_5_ <= 1
 R122: x5_6_ + x13_6_ <= 1
 R123: x5_5_ + x14_5_ <= 1
 R124: x5_6_ + x14_6_ <= 1
 R125: x4_0_ + x6_0_ <= 1
 R126: x4_1_ + x6_1_ <= 1
 R127: x4_2_ + x6_2_ <= 1
 R128: x4_3_ + x6_3_ <= 1
 R129: x4_4_ + x6_4_ <= 1
 R130: x4_5_ + x6_5_ <= 1
 R131: x4_6_ + x6_6_ <= 1
 R132: x4_7_ + x6_7_ <= 1
 R133: x4_8_ + x6_8_ <= 1
 R134: x4_9_ + x6_9_ <= 1
 R135: x6_0_ + x7_0_ <= 1
 R136: x6_1_ + x7_1_ <= 1
 R137: x6_2_ + x7_2_ <= 1
 R138: x6_3_ + x7_3_ <= 1
 R139: x6_4_ + x7_4_ <= 1
 R140: x6_5_ + x7_5_ <= 1
 R141: x6_6_ + x7_6_ <= 1
 R142: x6_7_ + x7_7_ <= 1
 R143: x6_8_ + x7_8_ <= 1
 R144: x6_9_ + x7_9_ <= 1
 R145: x6_0_ + x11_0_ <= 1
 R146: x6_1_ + x11_1_ <= 1
 R147: x6_2_ + x11_2_ <= 1
 R148: x6_3_ + x11_3_ <= 1
 R149: x6_4_ + x11_4_ <= 1
 R150: x6_5_ + x11_5_ <= 1
 R151: x6_6_ + x11_6_ <= 1
 R152: x6_7_ + x11_7_ <= 1
 R153: x6_8_ + x11_8_ <= 1
 R154: x6_9_ + x11_9_ <= 1
 R155: x6_0_ + x12_0_ <= 1
 R156: x6_1_ + x12_1_ <= 1
 R157: x6_2_ + x12_2_ <= 1
 R158: x6_3_ + x12_3_ <= 1
 R159: x6_4_ + x12_4_ <= 1
 R160: x6_5_ + x12_5_ <= 1
 R161: x6_6_ + x12_6_ <= 1
 R162: x6_7_ + x12_7_ <= 1
 R163: x6_8_ + x12_8_ <= 1
 R164: x6_9_ + x12_9_ <= 1
 R165: x4_0_ + x7_0_ <= 1
 R166: x4_1_ + x7_1_ <= 1
 R167: x4_2_ + x7_2_ <= 1
 R168: x4_3_ + x7_3_ <= 1
 R169: x4_4_ + x7_4_ <= 1
 R170: x4_5_ + x7_5_ <= 1
 R171: x4_6_ + x7_6_ <= 1
 R172: x4_7_ + x7_7_ <= 1
 R173: x4_8_ + x7_8_ <= 1
 R174: x4_9_ + x7_9_ <= 1
 R175: x6_0_ + x7_0_ <= 1
 R176: x6_1_ + x7_1_ <= 1
 R177: x6_2_ + x7_2_ <= 1
 R178: x6_3_ + x7_3_ <= 1
 R179: x6_4_ + x7_4_ <= 1
 R180: x6_5_ + x7_5_ <= 1
 R181: x6_6_ + x7_6_ <= 1
 R182: x6_7_ + x7_7_ <= 1
 R183: x6_8_ + x7_8_ <= 1
 R184: x6_9_ + x7_9_ <= 1
 R185: x7_0_ + x11_0_ <= 1
 R186: x7_1_ + x11_1_ <= 1
 R187: x7_2_ + x11_2_ <= 1
 R188: x7_3_ + x11_3_ <= 1
 R189: x7_4_ + x11_4_ <= 1
 R190: x7_5_ + x11_5_ <= 1
 R191: x7_6_ + x11_6_ <= 1
 R192: x7_7_ + x11_7_ <= 1
 R193: x7_8_ + x11_8_ <= 1
 R194: x7_9_ + x11_9_ <= 1
 R195: x7_0_ + x12_0_ <= 1
 R196: x7_1_ + x12_1_ <= 1
 R197: x7_2_ + x12_2_ <= 1
 R198: x7_3_ + x12_3_ <= 1
 R199: x7_4_ + x12_4_ <= 1
 R200: x7_5_ + x12_5_ <= 1
 R201: x7_6_ + x12_6_ <= 1
 R202: x7_7_ + x12_7_ <= 1
 R203: x7_8_ + x12_8_ <= 1
 R204: x7_9_ + x12_9_ <= 1
 R205: x8_0_ + x11_0_ <= 1
 R206: x8_1_ + x11_1_ <= 1
 R207: x8_2_ + x11_2_ <= 1
 R208: x8_3_ + x11_3_ <= 1
 R209: x8_4_ + x11_4_ <= 1
 R210: x8_5_ + x11_5_ <= 1
 R211: x8_6_ + x11_6_ <= 1
 R212: x8_7_ + x11_7_ <= 1
 R213: x8_8_ + x11_8_ <= 1
 R214: x8_9_ + x11_9_ <= 1
 R215: x8_0_ + x13_0_ <= 1
 R216: x8_1_ + x13_1_ <= 1
 R217: x8_2_ + x13_2_ <= 1
 R218: x8_3_ + x13_3_ <= 1
 R219: x8_4_ + x13_4_ <= 1
 R220: x8_5_ + x13_5_ <= 1
 R221: x8_6_ + x13_6_ <= 1
 R222: x8_7_ + x13_7_ <= 1
 R223: x8_8_ + x13_8_ <= 1
 R224: x8_9_ + x13_9_ <= 1
 R225: x0_0_ + x9_0_ <= 1
 R226: x0_1_ + x9_1_ <= 1
 R227: x0_2_ + x9_2_ <= 1
 R228: x0_3_ + x9_3_ <= 1
 R229: x0_4_ + x9_4_ <= 1
 R230: x0_5_ + x9_5_ <= 1
 R231: x0_6_ + x9_6_ <= 1
 R232: x0_7_ + x9_7_ <= 1
 R233: x0_8_ + x9_8_ <= 1
 R234: x0_9_ + x9_9_ <= 1
 R235: x9_0_ + x13_0_ <= 1
 R236: x9_1_ + x13_1_ <= 1
 R237: x9_2_ + x13_2_ <= 1
 R238: x9_3_ + x13_3_ <= 1
 R239: x9_4_ + x13_4_ <= 1
 R240: x9_5_ + x13_5_ <= 1
 R241: x9_6_ + x13_6_ <= 1
 R242: x9_7_ + x13_7_ <= 1
 R243: x9_8_ + x13_8_ <= 1
 R244: x9_9_ + x13_9_ <= 1
 R245: x9_0_ + x14_0_ <= 1
 R246: x9_1_ + x14_1_ <= 1
 R247: x9_2_ + x14_2_ <= 1
 R248: x9_3_ + x14_3_ <= 1
 R249: x9_4_ + x14_4_ <= 1
 R250: x9_5_ + x14_5_ <= 1
 R251: x9_6_ + x14_6_ <= 1
 R252: x9_7_ + x14_7_ <= 1
 R253: x9_8_ + x14_8_ <= 1
 R254: x9_9_ + x14_9_ <= 1
 R255: x5_5_ + x10_5_ <= 1
 R256: x5_6_ + x10_6_ <= 1
 R257: x6_5_ + x10_5_ <= 1
 R258: x6_6_ + x10_6_ <= 1
 R259: x7_5_ + x10_5_ <= 1
 R260: x7_6_ + x10_6_ <= 1
 R261: x8_5_ + x10_5_ <= 1
 R262: x8_6_ + x10_6_ <= 1
 R263: x10_5_ + x11_5_ <= 1
 R264: x10_6_ + x11_6_ <= 1
 R265: x10_5_ + x13_5_ <= 1
 R266: x10_6_ + x13_6_ <= 1
 R267: x4_0_ + x11_0_ <= 1
 R268: x4_1_ + x11_1_ <= 1
 R269: x4_2_ + x11_2_ <= 1
 R270: x4_3_ + x11_3_ <= 1
 R271: x4_4_ + x11_4_ <= 1
 R272: x4_5_ + x11_5_ <= 1
 R273: x4_6_ + x11_6_ <= 1
 R274: x4_7_ + x11_7_ <= 1
 R275: x4_8_ + x11_8_ <= 1
 R276: x4_9_ + x11_9_ <= 1
 R277: x6_0_ + x11_0_ <= 1
 R278: x6_1_ + x11_1_ <= 1
 R279: x6_2_ + x11_2_ <= 1
 R280: x6_3_ + x11_3_ <= 1
 R281: x6_4_ + x11_4_ <= 1
 R282: x6_5_ + x11_5_ <= 1
 R283: x6_6_ + x11_6_ <= 1
 R284: x6_7_ + x11_7_ <= 1
 R285: x6_8_ + x11_8_ <= 1
 R286: x6_9_ + x11_9_ <= 1
 R287: x7_0_ + x11_0_ <= 1
 R288: x7_1_ + x11_1_ <= 1
 R289: x7_2_ + x11_2_ <= 1
 R290: x7_3_ + x11_3_ <= 1
 R291: x7_4_ + x11_4_ <= 1
 R292: x7_5_ + x11_5_ <= 1
 R293: x7_6_ + x11_6_ <= 1
 R294: x7_7_ + x11_7_ <= 1
 R295: x7_8_ + x11_8_ <= 1
 R296: x7_9_ + x11_9_ <= 1
 R297: x8_0_ + x11_0_ <= 1
 R298: x8_1_ + x11_1_ <= 1
 R299: x8_2_ + x11_2_ <= 1
 R300: x8_3_ + x11_3_ <= 1
 R301: x8_4_ + x11_4_ <= 1
 R302: x8_5_ + x11_5_ <= 1
 R303: x8_6_ + x11_6_ <= 1
 R304: x8_7_ + x11_7_ <= 1
 R305: x8_8_ + x11_8_ <= 1
 R306: x8_9_ + x11_9_ <= 1
 R307: x11_0_ + x12_0_ <= 1
 R308: x11_1_ + x12_1_ <= 1
 R309: x11_2_ + x12_2_ <= 1
 R310: x11_3_ + x12_3_ <= 1
 R311: x11_4_ + x12_4_ <= 1
 R312: x11_5_ + x12_5_ <= 1
 R313: x11_6_ + x12_6_ <= 1
 R314: x11_7_ + x12_7_ <= 1
 R315: x11_8_ + x12_8_ <= 1
 R316: x11_9_ + x12_9_ <= 1
 R317: x11_0_ + x13_0_ <= 1
 R318: x11_1_ + x13_1_ <= 1
 R319: x11_2_ + x13_2_ <= 1
 R320: x11_3_ + x13_3_ <= 1
 R321: x11_4_ + x13_4_ <= 1
 R322: x11_5_ + x13_5_ <= 1
 R323: x11_6_ + x13_6_ <= 1
 R324: x11_7_ + x13_7_ <= 1
 R325: x11_8_ + x13_8_ <= 1
 R326: x11_9_ + x13_9_ <= 1
 R327: x4_0_ + x12_0_ <= 1
 R328: x4_1_ + x12_1_ <= 1
 R329: x4_2_ + x12_2_ <= 1
 R330: x4_3_ + x12_3_ <= 1
 R331: x4_4_ + x12_4_ <= 1
 R332: x4_5_ + x12_5_ <= 1
 R333: x4_6_ + x12_6_ <= 1
 R334: x4_7_ + x12_7_ <= 1
 R335: x4_8_ + x12_8_ <= 1
 R336: x4_9_ + x12_9_ <= 1
 R337: x6_0_ + x12_0_ <= 1
 R338: x6_1_ + x12_1_ <= 1
 R339: x6_2_ + x12_2_ <= 1
 R340: x6_3_ + x12_3_ <= 1
 R341: x6_4_ + x12_4_ <= 1
 R342: x6_5_ + x12_5_ <= 1
 R343: x6_6_ + x12_6_ <= 1
 R344: x6_7_ + x12_7_ <= 1
 R345: x6_8_ + x12_8_ <= 1
 R346: x6_9_ + x12_9_ <= 1
 R347: x7_0_ + x12_0_ <= 1
 R348: x7_1_ + x12_1_ <= 1
 R349: x7_2_ + x12_2_ <= 1
 R350: x7_3_ + x12_3_ <= 1
 R351: x7_4_ + x12_4_ <= 1
 R352: x7_5_ + x12_5_ <= 1
 R353: x7_6_ + x12_6_ <= 1
 R354: x7_7_ + x12_7_ <= 1
 R355: x7_8_ + x12_8_ <= 1
 R356: x7_9_ + x12_9_ <= 1
 R357: x11_0_ + x12_0_ <= 1
 R358: x11_1_ + x12_1_ <= 1
 R359: x11_2_ + x12_2_ <= 1
 R360: x11_3_ + x12_3_ <= 1
 R361: x11_4_ + x12_4_ <= 1
 R362: x11_5_ + x12_5_ <= 1
 R363: x11_6_ + x12_6_ <= 1
 R364: x11_7_ + x12_7_ <= 1
 R365: x11_8_ + x12_8_ <= 1
 R366: x11_9_ + x12_9_ <= 1
 R367: x0_0_ + x13_0_ <= 1
 R368: x0_1_ + x13_1_ <= 1
 R369: x0_2_ + x13_2_ <= 1
 R370: x0_3_ + x13_3_ <= 1
 R371: x0_4_ + x13_4_ <= 1
 R372: x0_5_ + x13_5_ <= 1
 R373: x0_6_ + x13_6_ <= 1
 R374: x0_7_ + x13_7_ <= 1
 R375: x0_8_ + x13_8_ <= 1
 R376: x0_9_ + x13_9_ <= 1
 R377: x8_0_ + x13_0_ <= 1
 R378: x8_1_ + x13_1_ <= 1
 R379: x8_2_ + x13_2_ <= 1
 R380: x8_3_ + x13_3_ <= 1
 R381: x8_4_ + x13_4_ <= 1
 R382: x8_5_ + x13_5_ <= 1
 R383: x8_6_ + x13_6_ <= 1
 R384: x8_7_ + x13_7_ <= 1
 R385: x8_8_ + x13_8_ <= 1
 R386: x8_9_ + x13_9_ <= 1
 R387: x9_0_ + x13_0_ <= 1
 R388: x9_1_ + x13_1_ <= 1
 R389: x9_2_ + x13_2_ <= 1
 R390: x9_3_ + x13_3_ <= 1
 R391: x9_4_ + x13_4_ <= 1
 R392: x9_5_ + x13_5_ <= 1
 R393: x9_6_ + x13_6_ <= 1
 R394: x9_7_ + x13_7_ <= 1
 R395: x9_8_ + x13_8_ <= 1
 R396: x9_9_ + x13_9_ <= 1
 R397: x11_0_ + x13_0_ <= 1
 R398: x11_1_ + x13_1_ <= 1
 R399: x11_2_ + x13_2_ <= 1
 R400: x11_3_ + x13_3_ <= 1
 R401: x11_4_ + x13_4_ <= 1
 R402: x11_5_ + x13_5_ <= 1
 R403: x11_6_ + x13_6_ <= 1
 R404: x11_7_ + x13_7_ <= 1
 R405: x11_8_ + x13_8_ <= 1
 R406: x11_9_ + x13_9_ <= 1
 R407: x13_0_ + x14_0_ <= 1
 R408: x13_1_ + x14_1_ <= 1
 R409: x13_2_ + x14_2_ <= 1
 R410: x13_3_ + x14_3_ <= 1
 R411: x13_4_ + x14_4_ <= 1
 R412: x13_5_ + x14_5_ <= 1
 R413: x13_6_ + x14_6_ <= 1
 R414: x13_7_ + x14_7_ <= 1
 R415: x13_8_ + x14_8_ <= 1
 R416: x13_9_ + x14_9_ <= 1
 R417: x0_0_ + x14_0_ <= 1
 R418: x0_1_ + x14_1_ <= 1
 R419: x0_2_ + x14_2_ <= 1
 R420: x0_3_ + x14_3_ <= 1
 R421: x0_4_ + x14_4_ <= 1
 R422: x0_5_ + x14_5_ <= 1
 R423: x0_6_ + x14_6_ <= 1
 R424: x0_7_ + x14_7_ <= 1
 R425: x0_8_ + x14_8_ <= 1
 R426: x0_9_ + x14_9_ <= 1
 R427: x9_0_ + x14_0_ <= 1
 R428: x9_1_ + x14_1_ <= 1
 R429: x9_2_ + x14_2_ <= 1
 R430: x9_3_ + x14_3_ <= 1
 R431: x9_4_ + x14_4_ <= 1
 R432: x9_5_ + x14_5_ <= 1
 R433: x9_6_ + x14_6_ <= 1
 R434: x9_7_ + x14_7_ <= 1
 R435: x9_8_ + x14_8_ <= 1
 R436: x9_9_ + x14_9_ <= 1
 R437: x13_0_ + x14_0_ <= 1
 R438: x13_1_ + x14_1_ <= 1
 R439: x13_2_ + x14_2_ <= 1
 R440: x13_3_ + x14_3_ <= 1
 R441: x13_4_ + x14_4_ <= 1
 R442: x13_5_ + x14_5_ <= 1
 R443: x13_6_ + x14_6_ <= 1
 R444: x13_7_ + x14_7_ <= 1
 R445: x13_8_ + x14_8_ <= 1
 R446: x13_9_ + x14_9_ <= 1
 R447: <= 1
 R448: 9 x0_0_ + 9 x0_1_ + 9 x0_2_ + 9 x0_3_ + 9 x0_4_ + 2 x0_5_ + 2 x0_6_
   + 9 x0_7_ + 9 x0_8_ + 9 x0_9_ + 144 x1_5_ + 144 x1_6_ + 85 x2_5_
   + 85 x2_6_ + 432 x3_5_ + 432 x3_6_ + 27 x4_0_ + 27 x4_1_ + 27 x4_2_
   + 27 x4_3_ + 27 x4_4_ + 6 x4_5_ + 6 x4_6_ + 27 x4_7_ + 27 x4_8_
   + 27 x4_9_ + 360 x5_5_ + 360 x5_6_ + 36 x6_0_ + 36 x6_1_ + 36 x6_2_
   + 36 x6_3_ + 36 x6_4_ + 8 x6_5_ + 8 x6_6_ + 36 x6_7_ + 36 x6_8_
   + 36 x6_9_ + 36 x7_0_ + 36 x7_1_ + 36 x7_2_ + 36 x7_3_ + 36 x7_4_
   + 8 x7_5_ + 8 x7_6_ + 36 x7_7_ + 36 x7_8_ + 36 x7_9_ + 27 x8_0_
   + 27 x8_1_ + 27 x8_2_ + 27 x8_3_ + 27 x8_4_ + 6 x8_5_ + 6 x8_6_
   + 27 x8_7_ + 27 x8_8_ + 27 x8_9_ + 9 x9_0_ + 9 x9_1_ + 9 x9_2_ + 9 x9_3_
   + 9 x9_4_ + 2 x9_5_ + 2 x9_6_ + 9 x9_7_ + 9 x9_8_ + 9 x9_9_ + 34 x10_5_
   + 34 x10_6_ + 45 x11_0_ + 45 x11_1_ + 45 x11_2_ + 45 x11_3_ + 45 x11_4_
   + 10 x11_5_ + 10 x11_6_ + 45 x11_7_ + 45 x11_8_ + 45 x11_9_ + 18 x12_0_
   + 18 x12_1_ + 18 x12_2_ + 18 x12_3_ + 18 x12_4_ + 4 x12_5_ + 4 x12_6_
   + 18 x12_7_ + 18 x12_8_ + 18 x12_9_ + 54 x13_0_ + 54 x13_1_ + 54 x13_2_
   + 54 x13_3_ + 54 x13_4_ + 12 x13_5_ + 12 x13_6_ + 54 x13_7_ + 54 x13_8_
   + 54 x13_9_ + 36 x14_0_ + 36 x14_1_ + 36 x14_2_ + 36 x14_3_ + 36 x14_4_
   + 8 x14_5_ + 8 x14_6_ + 36 x14_7_ + 36 x14_8_ + 36 x14_9_ >= 1267
 R449: x0_1_ + x1_5_ + x2_n_ + x3_6_ + x4_1_ + x5_5_ + x6_8_ + x7_4_
   + x8_0_ + x9_3_ + x10_6_ + x11_3_ + x12_0_ + x13_4_ + x14_0_ <= 14
 R450: x0_0_ + x1_5_ + x2_n_ + x3_6_ + x4_2_ + x5_5_ + x6_0_ + x7_4_
   + x8_1_ + x9_3_ + x10_6_ + x11_3_ + x12_1_ + x13_4_ + x14_1_ <= 14
 R451: x0_8_ + x1_5_ + x2_n_ + x3_6_ + x4_0_ + x5_5_ + x6_1_ + x7_4_
   + x8_2_ + x9_3_ + x10_6_ + x11_3_ + x12_2_ + x13_4_ + x14_2_ <= 14
Bounds
Binaries
 x0_0_ x0_1_ x0_2_ x0_3_ x0_4_ x0_5_ x0_6_ x0_7_ x0_8_ x0_9_ x0_n_ x1_5_
 x1_6_ x1_n_ x2_5_ x2_6_ x2_n_ x3_5_ x3_6_ x3_n_ x4_0_ x4_1_ x4_2_ x4_3_
 x4_4_ x4_5_ x4_6_ x4_7_ x4_8_ x4_9_ x4_n_ x5_5_ x5_6_ x5_n_ x6_0_ x6_1_
 x6_2_ x6_3_ x6_4_ x6_5_ x6_6_ x6_7_ x6_8_ x6_9_ x6_n_ x7_0_ x7_1_ x7_2_
 x7_3_ x7_4_ x7_5_ x7_6_ x7_7_ x7_8_ x7_9_ x7_n_ x8_0_ x8_1_ x8_2_ x8_3_
 x8_4_ x8_5_ x8_6_ x8_7_ x8_8_ x8_9_ x8_n_ x9_0_ x9_1_ x9_2_ x9_3_ x9_4_
 x9_5_ x9_6_ x9_7_ x9_8_ x9_9_ x9_n_ x10_5_ x10_6_ x10_n_ x11_0_ x11_1_
 x11_2_ x11_3_ x11_4_ x11_5_ x11_6_ x11_7_ x11_8_ x11_9_ x11_n_ x12_0_
 x12_1_ x12_2_ x12_3_ x12_4_ x12_5_ x12_6_ x12_7_ x12_8_ x12_9_ x12_n_
 x13_0_ x13_1_ x13_2_ x13_3_ x13_4_ x13_5_ x13_6_ x13_7_ x13_8_ x13_9_
 x13_n_ x14_0_ x14_1_ x14_2_ x14_3_ x14_4_ x14_5_ x14_6_ x14_7_ x14_8_
 x14_9_ x14_n_
End
